# 58862
param k := 6;
param n := 50;
param s := 1;
set E :=  (0,30) (0,37) (0,45) (1,48) (2,31) (2,33) (2,38) (3,18) (3,44) (4,32) (5,35) (5,46) (6,35) (7,10) (7,37) (7,45) (8,14) (8,16) (8,20) (8,42) (8,45) (9,36) (10,31) (10,37) (11,37) (11,42) (11,44) (12,40) (13,37) (14,28) (15,37) (17,46) (17,47) (18,25) (19,39) (21,25) (21,34) (22,30) (23,25) (23,31) (24,34) (24,38) (24,47) (25,45) (26,32) (26,33) (26,40) (26,49) (27,28) (27,32) (27,44) (28,31) (29,38) (30,41) (30,47) (31,36) (32,39) (33,42) (34,35) (35,43) (36,48) (38,42) (38,48) (43,48);